NAME : random114.805.tour
COMMENT : Length = 805
COMMENT : Found by LKH [Keld Helsgaun] Sun Jun 16 18:04:46 2024
TYPE : TOUR
DIMENSION : 114
TOUR_SECTION
1
48
8
11
67
4
109
83
44
76
37
51
75
6
46
17
80
28
38
71
81
31
112
24
43
87
18
113
98
30
78
90
49
54
114
35
110
99
96
84
62
69
13
16
3
26
65
25
41
5
82
45
85
100
33
9
70
104
95
108
56
107
74
66
102
22
93
73
111
21
34
47
40
14
36
63
7
42
59
61
32
10
58
106
55
86
2
20
12
89
68
91
29
57
39
19
97
77
50
53
105
88
27
52
72
64
23
60
15
101
92
94
79
103
-1
EOF
